n = 10;
m = 10;
end_grid=[|
 0, 0, 0, 0, 0, 0, 0, 0, 0, 0|
 0, 1, 1, 0, 1, 1, 0, 1, 1, 0|
 0, 1, 1, 0, 1, 1, 0, 1, 1, 0|
 0, 0, 0, 0, 0, 0, 0, 0, 0, 0|
 0, 1, 1, 0, 1, 1, 0, 1, 1, 0|
 0, 1, 1, 0, 1, 1, 0, 1, 1, 0|
 0, 0, 0, 0, 0, 0, 0, 0, 0, 0|
 0, 1, 1, 0, 1, 1, 0, 1, 1, 0|
 0, 1, 1, 0, 1, 1, 0, 1, 1, 0|
 0, 0, 0, 0, 0, 0, 0, 0, 0, 0|];

